NAME          COPTPROB
OBJSENSE
  MIN
ROWS
 N  __OBJ___
 L  C1      
 L  C2      
 L  C3      
 L  C5      
 L  C6      
 L  C9      
 L  C10     
 L  C16     
 L  C18     
 L  C19     
 L  C20     
 L  C23     
 L  C24     
 L  C25     
 L  C27     
 L  C30     
 L  C34     
 L  C36     
 L  C39     
 L  C40     
 L  C41     
 L  C43     
 L  C45     
 L  C46     
 L  C51     
 L  C52     
 L  C57     
 L  C59     
 L  C61     
 L  C63     
 L  C65     
 L  C67     
 L  C70     
 L  C71     
 L  C72     
 L  C73     
 L  C76     
 L  C77     
 L  C80     
 L  C81     
 L  C84     
 L  C85     
 L  C87     
 L  C89     
 L  C90     
 L  C92     
 L  C94     
 L  C96     
 L  C99     
 L  C105    
 L  C106    
 L  C107    
 L  C109    
 L  C110    
 L  C112    
 L  C117    
 L  C118    
 L  C119    
 L  C120    
 L  C122    
 L  C124    
 L  C125    
 L  C133    
 L  C136    
 L  C140    
 L  C142    
 L  C143    
 L  C146    
 L  C149    
 L  C151    
 L  C152    
 L  C155    
 L  C158    
 L  C161    
 L  C162    
 L  C164    
 L  C166    
 L  C167    
 L  C168    
 L  C169    
 L  C171    
 L  C172    
 L  C173    
 L  C175    
 L  C176    
 L  C177    
 L  C179    
 L  C181    
 L  C183    
 L  C185    
 L  C186    
 L  C187    
 L  C188    
 L  C189    
 L  C191    
 L  C194    
 L  C195    
 L  C196    
 L  C197    
 L  C198    
 L  C199    
 L  C200    
 L  C201    
 L  C203    
 L  C208    
 L  C212    
 L  C215    
 L  C220    
 L  C222    
 L  C223    
 L  C225    
 L  C228    
 L  C229    
 L  C230    
 L  C231    
 L  C233    
 L  C236    
 L  C237    
 L  C238    
 L  C240    
 L  C243    
 L  C244    
 L  C245    
 L  C246    
 L  C249    
 L  C250    
 L  C251    
 L  C252    
 L  C254    
 L  C257    
 L  C259    
 L  C261    
 L  C263    
 L  C264    
 L  C266    
 L  C267    
 L  C272    
 L  C274    
 L  C277    
 L  C278    
 L  C282    
 L  C284    
 L  C285    
 L  C286    
 L  C288    
 L  C289    
 L  C292    
 L  C296    
 L  C297    
 L  C298    
 L  C300    
 L  C301    
 L  C302    
 L  C305    
 L  C307    
 L  C309    
 L  C312    
 L  C316    
 L  C327    
 L  C329    
 L  C331    
 L  C332    
 L  C334    
 L  C338    
 L  C339    
 L  C340    
 L  C342    
 L  C343    
 L  C345    
 L  C346    
 L  C349    
 L  C350    
 L  C353    
 L  C354    
 L  C355    
 L  C356    
 L  C358    
 L  C359    
 L  C360    
 L  C363    
 L  C365    
 L  C368    
 L  C371    
 L  C373    
 L  C377    
 L  C379    
 L  C382    
 L  C384    
 L  C385    
 L  C387    
 L  C393    
 L  C394    
 L  C395    
 L  C397    
 L  C398    
 L  C402    
 L  C403    
 L  C407    
 L  C410    
 L  C411    
 L  C412    
 L  C413    
 L  C414    
 L  C415    
 L  C416    
 L  C418    
 L  C420    
 L  C421    
 L  C425    
 L  C426    
 L  C427    
 L  C434    
 L  C436    
 L  C437    
 L  C439    
 L  C440    
 L  C441    
 L  C442    
 L  C446    
 L  C447    
 L  C448    
 L  C450    
 L  C451    
 L  C454    
 L  C458    
 L  C459    
 L  C463    
 L  C464    
 L  C466    
 L  C467    
 L  C469    
 L  C474    
 L  C475    
 L  C476    
 L  C480    
 L  C482    
 L  C483    
 L  C485    
 L  C486    
 L  C487    
 L  C488    
 L  C489    
 L  C491    
 L  C492    
 L  C493    
 L  C496    
 L  C501    
 L  C503    
 L  C506    
 L  C507    
 L  C510    
 L  C512    
 L  C513    
 L  C515    
 L  C516    
 L  C517    
 L  C518    
 L  C519    
 L  C520    
 L  C521    
 L  C523    
 L  C529    
 L  C533    
 L  C534    
 L  C535    
 L  C536    
 L  C537    
 L  C538    
 L  C539    
 L  C540    
 L  C541    
 L  C544    
 L  C545    
 L  C546    
 L  C547    
 L  C548    
 L  C549    
 L  C551    
 L  C553    
 L  C560    
 L  C561    
 L  C565    
COLUMNS
    MARKER    'MARKER'                 'INTORG'
    x3        __OBJ___  -1
    x3        C9        1
    x3        C10       1
    x3        C46       1
    x3        C52       1
    x3        C109      1
    x3        C117      1
    x3        C162      1
    x3        C168      1
    x3        C346      1
    x3        C355      1
    x3        C356      1
    x3        C410      1
    x3        C547      1
    x4        __OBJ___  -1
    x4        C6        1
    x4        C106      1
    x4        C136      1
    x4        C172      1
    x4        C183      1
    x4        C196      1
    x4        C198      1
    x4        C284      1
    x4        C289      1
    x4        C482      1
    x4        C545      1
    x11       __OBJ___  -1
    x11       C67       1
    x11       C77       1
    x11       C99       1
    x11       C124      1
    x11       C161      1
    x11       C257      1
    x11       C272      1
    x11       C297      1
    x11       C329      1
    x11       C350      1
    x11       C402      1
    x11       C437      1
    x12       __OBJ___  -1
    x12       C34       1
    x12       C45       1
    x12       C65       1
    x12       C164      1
    x12       C237      1
    x12       C395      1
    x12       C463      1
    x12       C560      1
    x13       __OBJ___  -1
    x13       C46       1
    x13       C51       1
    x13       C57       1
    x13       C65       1
    x13       C96       1
    x13       C107      1
    x13       C309      1
    x13       C561      1
    x14       __OBJ___  -1
    x14       C57       1
    x14       C65       1
    x14       C94       1
    x14       C231      1
    x14       C274      1
    x14       C463      1
    x14       C537      1
    x15       __OBJ___  -1
    x15       C120      1
    x15       C277      1
    x15       C446      1
    x15       C545      1
    x17       __OBJ___  -1
    x17       C39       1
    x17       C110      1
    x17       C117      1
    x17       C176      1
    x17       C228      1
    x17       C296      1
    x17       C354      1
    x17       C382      1
    x17       C421      1
    x17       C488      1
    x17       C512      1
    x17       C546      1
    x17       C551      1
    x18       __OBJ___  -1
    x18       C61       1
    x18       C92       1
    x18       C151      1
    x18       C519      1
    x18       C535      1
    x18       C560      1
    x19       __OBJ___  -1
    x19       C59       1
    x19       C196      1
    x19       C215      1
    x19       C340      1
    x21       __OBJ___  -1
    x21       C70       1
    x21       C164      1
    x21       C225      1
    x21       C384      1
    x21       C397      1
    x21       C451      1
    x21       C516      1
    x22       __OBJ___  -1
    x22       C43       1
    x22       C140      1
    x22       C158      1
    x22       C181      1
    x22       C199      1
    x22       C292      1
    x22       C301      1
    x22       C332      1
    x22       C454      1
    x22       C547      1
    x23       __OBJ___  -1
    x23       C19       1
    x23       C73       1
    x23       C120      1
    x23       C175      1
    x23       C236      1
    x23       C363      1
    x23       C450      1
    x23       C523      1
    x23       C541      1
    x24       __OBJ___  -1
    x24       C70       1
    x24       C175      1
    x24       C459      1
    x25       __OBJ___  -1
    x25       C272      1
    x25       C285      1
    x25       C346      1
    x25       C553      1
    x26       __OBJ___  -1
    x26       C188      1
    x26       C243      1
    x26       C272      1
    x26       C286      1
    x26       C312      1
    x26       C377      1
    x26       C415      1
    x26       C521      1
    x26       C533      1
    x27       __OBJ___  -1
    x27       C535      1
    x27       C561      1
    x28       __OBJ___  -1
    x28       C45       1
    x28       C155      1
    x28       C173      1
    x28       C332      1
    x28       C339      1
    x28       C385      1
    x28       C447      1
    x28       C482      1
    x28       C486      1
    x28       C539      1
    x29       __OBJ___  -1
    x29       C70       1
    x29       C246      1
    x29       C296      1
    x29       C469      1
    x30       __OBJ___  -1
    x30       C20       1
    x30       C117      1
    x30       C284      1
    x30       C302      1
    x30       C334      1
    x30       C474      1
    x30       C538      1
    x31       __OBJ___  -1
    x31       C73       1
    x31       C110      1
    x31       C212      1
    x31       C222      1
    x31       C237      1
    x31       C458      1
    x33       __OBJ___  -1
    x33       C23       1
    x33       C228      1
    x33       C254      1
    x33       C307      1
    x33       C338      1
    x33       C506      1
    x33       C551      1
    x34       __OBJ___  -1
    x34       C24       1
    x34       C36       1
    x34       C81       1
    x34       C90       1
    x34       C186      1
    x34       C220      1
    x34       C222      1
    x34       C506      1
    x35       __OBJ___  -1
    x35       C173      1
    x35       C187      1
    x35       C411      1
    x35       C416      1
    x35       C496      1
    x36       __OBJ___  -1
    x36       C6        1
    x36       C30       1
    x36       C176      1
    x36       C434      1
    x39       __OBJ___  -1
    x39       C152      1
    x39       C177      1
    x39       C312      1
    x39       C395      1
    x39       C491      1
    x40       __OBJ___  -1
    x40       C166      1
    x40       C172      1
    x40       C208      1
    x40       C354      1
    x40       C467      1
    x41       __OBJ___  -1
    x41       C52       1
    x41       C475      1
    x42       __OBJ___  -1
    x42       C16       1
    x42       C27       1
    x42       C34       1
    x42       C72       1
    x42       C169      1
    x42       C420      1
    x42       C506      1
    x42       C551      1
    x43       __OBJ___  -1
    x43       C106      1
    x43       C491      1
    x43       C548      1
    x44       __OBJ___  -1
    x44       C199      1
    x44       C254      1
    x44       C529      1
    x45       __OBJ___  -1
    x45       C1        1
    x45       C72       1
    x45       C80       1
    x45       C92       1
    x45       C486      1
    x45       C515      1
    x46       __OBJ___  -1
    x46       C109      1
    x46       C439      1
    x47       __OBJ___  -1
    x47       C63       1
    x47       C105      1
    x47       C229      1
    x47       C251      1
    x47       C264      1
    x47       C289      1
    x47       C297      1
    x47       C365      1
    x47       C436      1
    x47       C537      1
    x47       C549      1
    x48       __OBJ___  -1
    x48       C90       1
    x48       C125      1
    x48       C194      1
    x48       C292      1
    x48       C403      1
    x48       C517      1
    x49       __OBJ___  -1
    x49       C342      1
    x49       C436      1
    x50       __OBJ___  -1
    x50       C3        1
    x50       C45       1
    x50       C122      1
    x50       C201      1
    x50       C252      1
    x50       C332      1
    x50       C334      1
    x51       __OBJ___  -1
    x51       C2        1
    x51       C84       1
    x51       C89       1
    x51       C149      1
    x51       C198      1
    x51       C510      1
    x52       __OBJ___  -1
    x52       C125      1
    x52       C177      1
    x52       C331      1
    x52       C379      1
    x52       C425      1
    x52       C489      1
    x53       __OBJ___  -1
    x53       C194      1
    x53       C274      1
    x53       C385      1
    x53       C503      1
    x53       C521      1
    x54       __OBJ___  -1
    x54       C96       1
    x54       C188      1
    x54       C476      1
    x54       C515      1
    x54       C523      1
    x55       __OBJ___  -1
    x55       C18       1
    x55       C168      1
    x55       C331      1
    x55       C343      1
    x55       C440      1
    x56       __OBJ___  -1
    x56       C84       1
    x56       C189      1
    x56       C266      1
    x56       C282      1
    x56       C340      1
    x56       C353      1
    x56       C384      1
    x56       C427      1
    x57       __OBJ___  -1
    x57       C57       1
    x57       C71       1
    x57       C360      1
    x57       C421      1
    x58       __OBJ___  -1
    x58       C16       1
    x58       C59       1
    x58       C185      1
    x58       C233      1
    x58       C410      1
    x58       C518      1
    x58       C549      1
    x59       __OBJ___  -1
    x59       C119      1
    x59       C512      1
    x60       __OBJ___  -1
    x60       C286      1
    x60       C353      1
    x61       __OBJ___  -1
    x61       C208      1
    x61       C223      1
    x61       C240      1
    x61       C257      1
    x61       C342      1
    x62       __OBJ___  -1
    x62       C5        1
    x62       C105      1
    x62       C197      1
    x62       C267      1
    x62       C349      1
    x62       C371      1
    x62       C394      1
    x62       C441      1
    x62       C503      1
    x62       C520      1
    x62       C544      1
    x63       __OBJ___  -1
    x63       C25       1
    x63       C288      1
    x63       C316      1
    x63       C407      1
    x63       C414      1
    x63       C420      1
    x63       C437      1
    x63       C442      1
    x63       C450      1
    x64       __OBJ___  -1
    x64       C164      1
    x64       C220      1
    x64       C387      1
    x64       C393      1
    x64       C536      1
    x64       C560      1
    x65       __OBJ___  -1
    x65       C183      1
    x65       C393      1
    x65       C533      1
    x66       __OBJ___  -1
    x66       C76       1
    x66       C197      1
    x66       C245      1
    x66       C345      1
    x66       C359      1
    x66       C379      1
    x66       C426      1
    x66       C454      1
    x66       C565      1
    x67       __OBJ___  -1
    x67       C187      1
    x67       C278      1
    x67       C434      1
    x67       C441      1
    x68       __OBJ___  -1
    x68       C80       1
    x68       C87       1
    x68       C394      1
    x69       __OBJ___  -1
    x69       C43       1
    x69       C338      1
    x69       C416      1
    x71       __OBJ___  -1
    x71       C112      1
    x71       C171      1
    x71       C355      1
    x71       C359      1
    x71       C398      1
    x71       C493      1
    x72       __OBJ___  -1
    x72       C107      1
    x72       C358      1
    x72       C414      1
    x72       C469      1
    x73       __OBJ___  -1
    x73       C133      1
    x73       C143      1
    x73       C176      1
    x73       C195      1
    x73       C489      1
    x74       __OBJ___  -1
    x74       C230      1
    x74       C486      1
    x75       __OBJ___  -1
    x75       C177      1
    x75       C249      1
    x75       C264      1
    x75       C466      1
    x76       __OBJ___  -1
    x76       C39       1
    x76       C140      1
    x76       C427      1
    x78       __OBJ___  -1
    x78       C288      1
    x78       C373      1
    x78       C418      1
    x78       C463      1
    x79       __OBJ___  -1
    x79       C327      1
    x79       C410      1
    x80       __OBJ___  -1
    x80       C146      1
    x80       C398      1
    x80       C459      1
    x80       C467      1
    x80       C487      1
    x81       __OBJ___  -1
    x81       C167      1
    x81       C437      1
    x81       C442      1
    x81       C485      1
    x81       C516      1
    x82       __OBJ___  -1
    x82       C76       1
    x82       C187      1
    x83       __OBJ___  -1
    x83       C5        1
    x83       C250      1
    x83       C350      1
    x84       __OBJ___  -1
    x84       C152      1
    x84       C186      1
    x84       C238      1
    x84       C365      1
    x85       __OBJ___  -1
    x85       C9        1
    x85       C61       1
    x85       C118      1
    x85       C448      1
    x86       __OBJ___  -1
    x86       C63       1
    x86       C263      1
    x86       C300      1
    x86       C513      1
    x86       C553      1
    x87       __OBJ___  -1
    x87       C67       1
    x87       C119      1
    x88       __OBJ___  -1
    x88       C23       1
    x88       C236      1
    x88       C415      1
    x88       C483      1
    x89       __OBJ___  -1
    x89       C288      1
    x89       C517      1
    x90       __OBJ___  -1
    x90       C363      1
    x90       C382      1
    x90       C411      1
    x90       C501      1
    x91       __OBJ___  -1
    x91       C51       1
    x91       C124      1
    x91       C482      1
    x92       __OBJ___  -1
    x92       C40       1
    x92       C167      1
    x92       C171      1
    x93       __OBJ___  -1
    x93       C278      1
    x93       C298      1
    x93       C327      1
    x94       __OBJ___  -1
    x94       C191      1
    x94       C371      1
    x94       C451      1
    x94       C519      1
    x94       C541      1
    x95       __OBJ___  -1
    x95       C94       1
    x95       C316      1
    x95       C507      1
    x95       C536      1
    x96       __OBJ___  -1
    x96       C24       1
    x96       C40       1
    x96       C203      1
    x97       __OBJ___  -1
    x97       C2        1
    x97       C20       1
    x97       C41       1
    x97       C231      1
    x98       __OBJ___  -1
    x98       C25       1
    x98       C195      1
    x99       __OBJ___  -1
    x99       C81       1
    x99       C142      1
    x99       C161      1
    x99       C282      1
    x99       C413      1
    x100      __OBJ___  -1
    x100      C240      1
    x100      C368      1
    x100      C373      1
    x100      C476      1
    x101      __OBJ___  -1
    x101      C166      1
    x101      C250      1
    x101      C307      1
    x101      C501      1
    x102      __OBJ___  -1
    x102      C179      1
    x102      C413      1
    x102      C439      1
    x102      C466      1
    x102      C485      1
    x103      __OBJ___  -1
    x103      C136      1
    x103      C534      1
    x103      C546      1
    x104      __OBJ___  -1
    x104      C215      1
    x104      C238      1
    x104      C259      1
    x104      C329      1
    x104      C345      1
    x106      __OBJ___  -1
    x106      C105      1
    x106      C200      1
    x106      C343      1
    x106      C464      1
    x106      C474      1
    x107      __OBJ___  -1
    x107      C158      1
    x107      C349      1
    x107      C446      1
    x108      __OBJ___  -1
    x108      C403      1
    x108      C510      1
    x109      __OBJ___  -1
    x109      C267      1
    x109      C305      1
    x109      C539      1
    x110      __OBJ___  -1
    x110      C143      1
    x110      C249      1
    x110      C360      1
    x112      __OBJ___  -1
    x112      C19       1
    x112      C99       1
    x112      C418      1
    x113      __OBJ___  -1
    x113      C191      1
    x113      C200      1
    x113      C548      1
    x114      __OBJ___  -1
    x114      C142      1
    x114      C169      1
    x115      __OBJ___  -1
    x115      C41       1
    x115      C518      1
    x116      __OBJ___  -1
    x116      C87       1
    x116      C181      1
    x116      C185      1
    x116      C302      1
    x117      __OBJ___  -1
    x117      C447      1
    x117      C538      1
    x118      __OBJ___  -1
    x118      C1        1
    x118      C252      1
    x118      C425      1
    x119      __OBJ___  -1
    x119      C18       1
    x119      C27       1
    x119      C112      1
    x119      C534      1
    x120      __OBJ___  -1
    x120      C229      1
    x120      C480      1
    x121      __OBJ___  -1
    x121      C89       1
    x121      C179      1
    x122      __OBJ___  -1
    x122      C85       1
    x122      C155      1
    x122      C442      1
    x122      C450      1
    x123      __OBJ___  -1
    x123      C118      1
    x123      C261      1
    x123      C301      1
    x123      C387      1
    x123      C464      1
    x124      __OBJ___  -1
    x124      C201      1
    x124      C259      1
    x124      C540      1
    x126      __OBJ___  -1
    x126      C233      1
    x126      C339      1
    x126      C407      1
    x127      __OBJ___  -1
    x127      C36       1
    x127      C513      1
    x128      __OBJ___  -1
    x128      C149      1
    x128      C412      1
    x128      C475      1
    x128      C529      1
    x129      __OBJ___  -1
    x129      C225      1
    x129      C426      1
    x129      C488      1
    x130      __OBJ___  -1
    x130      C356      1
    x130      C487      1
    x130      C565      1
    x131      __OBJ___  -1
    x131      C122      1
    x131      C245      1
    x131      C277      1
    x132      __OBJ___  -1
    x132      C228      1
    x132      C285      1
    x132      C448      1
    x133      __OBJ___  -1
    x133      C30       1
    x133      C263      1
    x134      __OBJ___  -1
    x134      C203      1
    x134      C358      1
    x134      C492      1
    x134      C544      1
    x135      __OBJ___  -1
    x135      C146      1
    x135      C251      1
    x135      C507      1
    x136      __OBJ___  -1
    x136      C85       1
    x136      C162      1
    x136      C189      1
    x136      C492      1
    x137      __OBJ___  -1
    x137      C244      1
    x137      C261      1
    x137      C266      1
    x138      __OBJ___  -1
    x138      C36       1
    x138      C368      1
    x138      C440      1
    x139      __OBJ___  -1
    x139      C377      1
    x139      C493      1
    x140      __OBJ___  -1
    x140      C71       1
    x140      C246      1
    x140      C305      1
    x141      __OBJ___  -1
    x141      C212      1
    x141      C230      1
    x141      C397      1
    x141      C520      1
    x142      __OBJ___  -1
    x142      C46       1
    x142      C483      1
    x143      __OBJ___  -1
    x143      C151      1
    x143      C223      1
    x143      C243      1
    x144      __OBJ___  -1
    x144      C133      1
    x144      C244      1
    x144      C300      1
    x145      __OBJ___  -1
    x145      C10       1
    x145      C540      1
    x146      __OBJ___  -1
    x146      C251      1
    x146      C458      1
    x147      __OBJ___  -1
    x147      C3        1
    x147      C402      1
    x147      C496      1
    x149      __OBJ___  -1
    x149      C298      1
    x149      C350      1
    x149      C412      1
    x150      __OBJ___  -1
    x150      C77       1
    x150      C309      1
    x150      C480      1
    MARKER    'MARKER'                 'INTEND'
RHS
    RHS       __OBJ___  6
    RHS       C1        1
    RHS       C2        1
    RHS       C3        1
    RHS       C5        1
    RHS       C6        1
    RHS       C9        1
    RHS       C10       1
    RHS       C16       1
    RHS       C18       1
    RHS       C19       1
    RHS       C20       1
    RHS       C23       1
    RHS       C24       1
    RHS       C25       1
    RHS       C27       1
    RHS       C30       1
    RHS       C34       1
    RHS       C36       1
    RHS       C39       1
    RHS       C40       1
    RHS       C41       1
    RHS       C43       1
    RHS       C45       1
    RHS       C46       1
    RHS       C51       1
    RHS       C52       1
    RHS       C57       1
    RHS       C59       1
    RHS       C61       1
    RHS       C63       1
    RHS       C65       1
    RHS       C67       1
    RHS       C70       1
    RHS       C71       1
    RHS       C72       1
    RHS       C73       1
    RHS       C76       1
    RHS       C77       1
    RHS       C80       1
    RHS       C81       1
    RHS       C84       1
    RHS       C85       1
    RHS       C87       1
    RHS       C89       1
    RHS       C90       1
    RHS       C92       1
    RHS       C94       1
    RHS       C96       1
    RHS       C99       1
    RHS       C105      1
    RHS       C106      1
    RHS       C107      1
    RHS       C109      1
    RHS       C110      1
    RHS       C112      1
    RHS       C117      1
    RHS       C118      1
    RHS       C119      1
    RHS       C120      1
    RHS       C122      1
    RHS       C124      1
    RHS       C125      1
    RHS       C133      1
    RHS       C136      1
    RHS       C140      1
    RHS       C142      1
    RHS       C143      1
    RHS       C146      1
    RHS       C149      1
    RHS       C151      1
    RHS       C152      1
    RHS       C155      1
    RHS       C158      1
    RHS       C161      1
    RHS       C162      1
    RHS       C164      1
    RHS       C166      1
    RHS       C167      1
    RHS       C168      1
    RHS       C169      1
    RHS       C171      1
    RHS       C172      1
    RHS       C173      1
    RHS       C175      1
    RHS       C176      1
    RHS       C177      1
    RHS       C179      1
    RHS       C181      1
    RHS       C183      1
    RHS       C185      1
    RHS       C186      1
    RHS       C187      1
    RHS       C188      1
    RHS       C189      1
    RHS       C191      1
    RHS       C194      1
    RHS       C195      1
    RHS       C196      1
    RHS       C197      1
    RHS       C198      1
    RHS       C199      1
    RHS       C200      1
    RHS       C201      1
    RHS       C203      1
    RHS       C208      1
    RHS       C212      1
    RHS       C215      1
    RHS       C220      1
    RHS       C222      1
    RHS       C223      1
    RHS       C225      1
    RHS       C228      1
    RHS       C229      1
    RHS       C230      1
    RHS       C231      1
    RHS       C233      1
    RHS       C236      1
    RHS       C237      1
    RHS       C238      1
    RHS       C240      1
    RHS       C243      1
    RHS       C244      1
    RHS       C245      1
    RHS       C246      1
    RHS       C249      1
    RHS       C250      1
    RHS       C251      1
    RHS       C252      1
    RHS       C254      1
    RHS       C257      1
    RHS       C259      1
    RHS       C261      1
    RHS       C263      1
    RHS       C264      1
    RHS       C266      1
    RHS       C267      1
    RHS       C272      1
    RHS       C274      1
    RHS       C277      1
    RHS       C278      1
    RHS       C282      1
    RHS       C284      1
    RHS       C285      1
    RHS       C286      1
    RHS       C288      1
    RHS       C289      1
    RHS       C292      1
    RHS       C296      1
    RHS       C297      1
    RHS       C298      1
    RHS       C300      1
    RHS       C301      1
    RHS       C302      1
    RHS       C305      1
    RHS       C307      1
    RHS       C309      1
    RHS       C312      1
    RHS       C316      1
    RHS       C327      1
    RHS       C329      1
    RHS       C331      1
    RHS       C332      1
    RHS       C334      1
    RHS       C338      1
    RHS       C339      1
    RHS       C340      1
    RHS       C342      1
    RHS       C343      1
    RHS       C345      1
    RHS       C346      1
    RHS       C349      1
    RHS       C350      1
    RHS       C353      1
    RHS       C354      1
    RHS       C355      1
    RHS       C356      1
    RHS       C358      1
    RHS       C359      1
    RHS       C360      1
    RHS       C363      1
    RHS       C365      1
    RHS       C368      1
    RHS       C371      1
    RHS       C373      1
    RHS       C377      1
    RHS       C379      1
    RHS       C382      1
    RHS       C384      1
    RHS       C385      1
    RHS       C387      1
    RHS       C393      1
    RHS       C394      1
    RHS       C395      1
    RHS       C397      1
    RHS       C398      1
    RHS       C402      1
    RHS       C403      1
    RHS       C407      1
    RHS       C410      1
    RHS       C411      1
    RHS       C412      1
    RHS       C413      1
    RHS       C414      1
    RHS       C415      1
    RHS       C416      1
    RHS       C418      1
    RHS       C420      1
    RHS       C421      1
    RHS       C425      1
    RHS       C426      1
    RHS       C427      1
    RHS       C434      1
    RHS       C436      1
    RHS       C437      1
    RHS       C439      1
    RHS       C440      1
    RHS       C441      1
    RHS       C442      1
    RHS       C446      1
    RHS       C447      1
    RHS       C448      1
    RHS       C450      1
    RHS       C451      1
    RHS       C454      1
    RHS       C458      1
    RHS       C459      1
    RHS       C463      1
    RHS       C464      1
    RHS       C466      1
    RHS       C467      1
    RHS       C469      1
    RHS       C474      1
    RHS       C475      1
    RHS       C476      1
    RHS       C480      1
    RHS       C482      1
    RHS       C483      1
    RHS       C485      1
    RHS       C486      1
    RHS       C487      1
    RHS       C488      1
    RHS       C489      1
    RHS       C491      1
    RHS       C492      1
    RHS       C493      1
    RHS       C496      1
    RHS       C501      1
    RHS       C503      1
    RHS       C506      1
    RHS       C507      1
    RHS       C510      1
    RHS       C512      1
    RHS       C513      1
    RHS       C515      1
    RHS       C516      1
    RHS       C517      1
    RHS       C518      1
    RHS       C519      1
    RHS       C520      1
    RHS       C521      1
    RHS       C523      1
    RHS       C529      1
    RHS       C533      1
    RHS       C534      1
    RHS       C535      1
    RHS       C536      1
    RHS       C537      1
    RHS       C538      1
    RHS       C539      1
    RHS       C540      1
    RHS       C541      1
    RHS       C544      1
    RHS       C545      1
    RHS       C546      1
    RHS       C547      1
    RHS       C548      1
    RHS       C549      1
    RHS       C551      1
    RHS       C553      1
    RHS       C560      1
    RHS       C561      1
    RHS       C565      1
BOUNDS
 UP BOUND     x3        1
 UP BOUND     x4        1
 UP BOUND     x11       1
 UP BOUND     x12       1
 UP BOUND     x13       1
 UP BOUND     x14       1
 UP BOUND     x15       1
 UP BOUND     x17       1
 UP BOUND     x18       1
 UP BOUND     x19       1
 UP BOUND     x21       1
 UP BOUND     x22       1
 UP BOUND     x23       1
 UP BOUND     x24       1
 UP BOUND     x25       1
 UP BOUND     x26       1
 UP BOUND     x27       1
 UP BOUND     x28       1
 UP BOUND     x29       1
 UP BOUND     x30       1
 UP BOUND     x31       1
 UP BOUND     x33       1
 UP BOUND     x34       1
 UP BOUND     x35       1
 UP BOUND     x36       1
 UP BOUND     x39       1
 UP BOUND     x40       1
 UP BOUND     x41       1
 UP BOUND     x42       1
 UP BOUND     x43       1
 UP BOUND     x44       1
 UP BOUND     x45       1
 UP BOUND     x46       1
 UP BOUND     x47       1
 UP BOUND     x48       1
 UP BOUND     x49       1
 UP BOUND     x50       1
 UP BOUND     x51       1
 UP BOUND     x52       1
 UP BOUND     x53       1
 UP BOUND     x54       1
 UP BOUND     x55       1
 UP BOUND     x56       1
 UP BOUND     x57       1
 UP BOUND     x58       1
 UP BOUND     x59       1
 UP BOUND     x60       1
 UP BOUND     x61       1
 UP BOUND     x62       1
 UP BOUND     x63       1
 UP BOUND     x64       1
 UP BOUND     x65       1
 UP BOUND     x66       1
 UP BOUND     x67       1
 UP BOUND     x68       1
 UP BOUND     x69       1
 UP BOUND     x71       1
 UP BOUND     x72       1
 UP BOUND     x73       1
 UP BOUND     x74       1
 UP BOUND     x75       1
 UP BOUND     x76       1
 UP BOUND     x78       1
 UP BOUND     x79       1
 UP BOUND     x80       1
 UP BOUND     x81       1
 UP BOUND     x82       1
 UP BOUND     x83       1
 UP BOUND     x84       1
 UP BOUND     x85       1
 UP BOUND     x86       1
 UP BOUND     x87       1
 UP BOUND     x88       1
 UP BOUND     x89       1
 UP BOUND     x90       1
 UP BOUND     x91       1
 UP BOUND     x92       1
 UP BOUND     x93       1
 UP BOUND     x94       1
 UP BOUND     x95       1
 UP BOUND     x96       1
 UP BOUND     x97       1
 UP BOUND     x98       1
 UP BOUND     x99       1
 UP BOUND     x100      1
 UP BOUND     x101      1
 UP BOUND     x102      1
 UP BOUND     x103      1
 UP BOUND     x104      1
 UP BOUND     x106      1
 UP BOUND     x107      1
 UP BOUND     x108      1
 UP BOUND     x109      1
 UP BOUND     x110      1
 UP BOUND     x112      1
 UP BOUND     x113      1
 UP BOUND     x114      1
 UP BOUND     x115      1
 UP BOUND     x116      1
 UP BOUND     x117      1
 UP BOUND     x118      1
 UP BOUND     x119      1
 UP BOUND     x120      1
 UP BOUND     x121      1
 UP BOUND     x122      1
 UP BOUND     x123      1
 UP BOUND     x124      1
 UP BOUND     x126      1
 UP BOUND     x127      1
 UP BOUND     x128      1
 UP BOUND     x129      1
 UP BOUND     x130      1
 UP BOUND     x131      1
 UP BOUND     x132      1
 UP BOUND     x133      1
 UP BOUND     x134      1
 UP BOUND     x135      1
 UP BOUND     x136      1
 UP BOUND     x137      1
 UP BOUND     x138      1
 UP BOUND     x139      1
 UP BOUND     x140      1
 UP BOUND     x141      1
 UP BOUND     x142      1
 UP BOUND     x143      1
 UP BOUND     x144      1
 UP BOUND     x145      1
 UP BOUND     x146      1
 UP BOUND     x147      1
 UP BOUND     x149      1
 UP BOUND     x150      1
ENDATA
